nNurses = 69;
nHours = 40;
minHours = 9;
maxHours = 9;
maxConsec = 8;
maxPresence = 23;
demand = [14, 10, 9, 14, 14, 9, 14, 16, 13, 12, 13, 12, 11, 14, 14, 10, 11, 8, 10, 9, 14, 9, 8, 10, 6, 6, 8, 6, 6, 10, 10, 14, 15, 15, 15, 15, 12, 10, 6, 7];
